NAME : traveling-santa-2018-prime-paths.29396.tour
COMMENT : Length = 29396
COMMENT : Found by LKH [Keld Helsgaun] Sun Jun 12 20:00:38 2022
TYPE : TOUR
DIMENSION : 100
TOUR_SECTION
1
13
44
80
97
100
58
12
24
52
69
33
57
7
47
36
20
94
37
3
76
16
5
19
72
91
67
55
87
11
2
74
93
70
88
83
77
85
96
63
28
62
60
29
51
46
4
86
53
49
25
48
18
27
95
64
68
21
73
75
79
17
41
90
10
61
54
8
84
31
34
78
56
45
92
98
35
50
15
26
9
66
38
22
89
30
99
81
82
42
71
23
40
6
32
65
43
39
59
14
-1
EOF
